
Gurobi 9.5.1 (linux64) logging started Sun Jun 19 15:09:16 2022

Set parameter LogFile to value "../results/logs/log_Brightkite_edges_2_250_2022_06_19_13_09.log"
Gurobi Optimizer version 9.5.1 build v9.5.1rc2 (linux64)
Thread count: 8 physical cores, 8 logical processors, using up to 8 threads
Optimize a model with 23479 rows, 116456 columns and 97341 nonzeros
Model fingerprint: 0xc71366dd
Variable types: 0 continuous, 116456 integer (116456 binary)
Coefficient statistics:
  Matrix range     [1e+00, 2e+00]
  Objective range  [1e+00, 1e+00]
  Bounds range     [1e+00, 1e+00]
  RHS range        [1e+00, 2e+02]
Found heuristic solution: objective 34706.000000
Presolve removed 21991 rows and 114611 columns
Presolve time: 0.06s
Presolved: 1488 rows, 1845 columns, 4783 nonzeros
Extracted 565 lazy constraints
Found heuristic solution: objective 34956.000000
Variable types: 0 continuous, 1845 integer (1781 binary)

Root relaxation: objective 3.555550e+04, 176 iterations, 0.00 seconds (0.00 work units)

    Nodes    |    Current Node    |     Objective Bounds      |     Work
 Expl Unexpl |  Obj  Depth IntInf | Incumbent    BestBd   Gap | It/Node Time

     0     0 35555.5000    0   27 34956.0000 35555.5000  1.72%     -    0s
     0     0 35281.0000    0   33 34956.0000 35281.0000  0.93%     -    0s
H    0     0                    35236.000000 35281.0000  0.13%     -    0s
     0     0 35281.0000    0   39 35236.0000 35281.0000  0.13%     -    0s
     0     0 35281.0000    0   16 35236.0000 35281.0000  0.13%     -    0s
     0     2 35281.0000    0   12 35236.0000 35281.0000  0.13%     -    0s
*   23    27               4    35266.000000 35271.5000  0.02%  85.0    0s
*   63     0               9    35267.000000 35267.0000  0.00%  34.4    0s

Cutting planes:
  Gomory: 12
  Cover: 8
  Implied bound: 42
  MIR: 12
  GUB cover: 6
  Zero half: 7
  Lazy constraints: 369

Explored 71 nodes (3459 simplex iterations) in 0.24 seconds (0.17 work units)
Thread count was 8 (of 8 available processors)

Solution count 5: 35267 35266 35236 ... 34706

Optimal solution found (tolerance 0.00e+00)
Best objective 3.526700000000e+04, best bound 3.526700000000e+04, gap 0.0000%
